100
1000
239
238
237
237
236
236
235
235
234
234
234
234
233
233
233
232
232
231
230
230
229
228
228
228
227
226
225
225
223
223
222
221
221
221
218
216
216
216
215
213
213
212
212
211
211
209
207
207
207
206
206
206
206
206
204
203
201
201
200
199
199
198
198
197
197
195
195
192
192
192
191
190
189
188
185
185
184
184
183
183
182
180
179
178
177
177
172
171
171
170
168
168
166
166
166
166
163
163
162
162
